original problem has 32674 variables (32597 bin, 41 int, 0 impl, 36 cont) and 32709 constraints
1/1 feasible solution given by solution candidate storage, new primal bound 7.022954e+03

presolving:
   (0.4s) running MILP presolver
   (3.1s) MILP presolver (2 rounds): 2 aggregations, 0 fixings, 0 bound changes
(round 1, exhaustive) 4 del vars, 4 del conss, 0 add conss, 0 chg bounds, 0 chg sides, 0 chg coeffs, 144 upgd conss, 0 impls, 0 clqs
   (3.3s) probing: 51/32597 (0.2%) - 0 fixings, 0 aggregations, 0 implications, 0 bound changes
   (3.3s) probing aborted: 50/50 successive totally useless probings
presolving (2 rounds: 2 fast, 2 medium, 2 exhaustive):
 4 deleted vars, 4 deleted constraints, 0 added constraints, 0 tightened bounds, 0 added holes, 0 changed sides, 0 changed coefficients
 72 implications, 0 cliques
presolved problem has 32670 variables (32597 bin, 37 int, 0 impl, 36 cont) and 32705 constraints
    144 constraints of type <varbound>
  32561 constraints of type <linear>
Presolving Time: 3.22
transformed 1/1 original solutions to the transformed problem space

 time | node  | left  |LP iter|LP it/n|mem/heur|mdpt |vars |cons |rows |cuts |sepa|confs|strbr|  dualbound   | primalbound  |  gap   | compl. 
  138s|     1 |     0 | 26964 |     - |   235M |   0 |  32k|  32k|  32k|   0 |  0 |   0 |   0 | 7.768396e-02 | 7.022954e+03 |  Large | unknown
  138s|     1 |     2 | 26964 |     - |   235M |   0 |  32k|  32k|  32k|   0 |  1 |   0 |   0 | 7.768396e-02 | 7.022954e+03 |  Large | unknown

SCIP Status        : solving was interrupted [node limit reached]
Solving Time (sec) : 138.04
Solving Nodes      : 1
Primal Bound       : +7.02295354347826e+03 (1 solutions)
Dual Bound         : +7.76839613707991e-02
Gap                : 9040316.35 %
wrote problem to file /mnt/lscratch/users/dferrario/Adaptive-Cutsel-MILP/TransformedInstances/adult-regularized__trans__seed__1.mps
